% demand
num_movements = 24;
loading_factor = [900, 1450, 800, 1650, 850, 1550, 1150, 1350, 1400, 1800, 800, 1350, 1750, 1150, 1600, 1550, 1300, 1700, 1550, 1700, 1450, 850, 900, 1550];
pickup_time = [0, 0, 0, 0, 0, 0, 2, 2, 2, 2, 3, 3, 3, 3, 3, 4, 4, 4, 4, 4, 4, 4, 4, 6];
delivery_time = [1, 2, 2, 2, 2, 2, 4, 3, 4, 4, 4, 4, 4, 4, 4, 7, 5, 5, 7, 7, 7, 7, 5, 7];

% transporter definition
total_capacity = 11000;
num_decks = 4;
capacity = [3000, 3000, 1000, 4000];

% ways out of decks
num_ways_out = 2;
paths_out = array3d(decks, ways_out, decks, [
% ways out of deck d1
2, 4, 0, 0, 3, 4, 0, 0, 

% ways out of deck d2
4, 0, 0, 0, 0, 0, 0, 0,	

% ways out of deck d3
4, 0, 0, 0, 0, 0, 0, 0,	

% ways out of deck d4
0, 0, 0, 0,	0, 0, 0, 0,	

]);

